C = [30, 15, 21];
CAP = [1100,200 , 600];
m = 6;
n = 8;
d = [|
110,  130,  150,  380,  420,  170,  220,220 |
130,  200,  180,  320,  450,  130,  290,  290|
160,  140,  140,  360,  480,  180,  270,  270|
190,  170,  120,  350,  520,  110,  260,  260|
170,  1150,  140,  400,  80,  190,  150,  150|
170,  1150,  140,  400,  80,  190,  150,  150|];

    
Vmin = 0.3;
precio = [35, 32, 42, 51, 32,60];
PRAH = 0.9;
DCH = 3;



